(set-info :smt-lib-version 2.6)
(set-info :category "crafted")
(set-info :source |Christoph M. Wintersteiger (cwinter@microsoft.com). Randomly generated floating-point testcases.|)
; Rounding mode: nearest, ties to even
; Precision: double (11/53)
; X = -1.6237347354040438940359081243514083325862884521484375p-536 {- 2809051521943687 -536 (-7.21834e-162)}
; -1.6237347354040438940359081243514083325862884521484375p-536 S == NaN
; [HW: NaN] 

; mpf : + 4503599627370495 1024
; mpfd: + 4503599627370495 1024 (1.#QNAN) class: NaN
; hwf : - 2251799813685248 1024 (-1.#IND) class: NaN

(set-logic QF_FP)
(set-info :status sat)
(define-sort FPN () (_ FloatingPoint 11 53))
(declare-fun x () FPN)
(declare-fun r () FPN)
(assert (= x (fp #b1 #b00111100111 #b1001111110101101000101000110000111110000100010000111)))
(assert (= r (_ NaN 11 53)))
(assert (= (fp.sqrt roundNearestTiesToEven x) r))
(check-sat)
(exit)
